# Solution for model r10_t18_m6_2 Batch Number: 1
# Finished Task: 18 / 18
# Makespan: 419.0, Total Distance: 182.0, Total Time: 21.1967
# R O S F Batch
0 0 16 0.0 0.0 -1
1 1 -1 0.0 0.0 -1
2 2 -1 0.0 0.0 -1
3 3 20 0.0 0.0 -1
4 4 19 0.0 0.0 -1
5 5 27 0.0 0.0 -1
6 6 17 0.0 0.0 -1
7 7 23 0.0 0.0 -1
8 8 -1 0.0 0.0 -1
9 9 10 0.0 0.0 -1
10 9 18 325.0 356.0 0
11 6 -1 368.0 391.0 0
12 4 25 345.0 370.0 0
13 7 -1 331.0 368.0 0
14 0 -1 394.0 419.0 0
15 0 14 349.0 386.0 0
16 0 15 176.0 215.0 0
17 6 11 57.0 84.0 0
18 9 -1 394.0 419.0 0
19 4 22 238.0 260.0 0
20 3 26 182.0 208.0 0
21 3 -1 388.0 419.0 0
22 4 24 260.0 284.0 0
23 7 13 233.0 255.0 0
24 4 12 323.0 345.0 0
25 4 -1 383.0 419.0 0
26 3 21 220.0 251.0 0
27 5 -1 291.0 317.0 0
